c File: flat50_3_0.col
c
c SOURCE: Joseph Culberson (joe@cs.ualberta.ca)
c DESCRIPTION: Quasi-random coloring problem
c              generated with flatness = 0
c                             probability = 0.139
c                             known coloring = 3
c                             random seed = 1098
c              Creation Date:  Tue Jun  9 12:01:04 1998
c Maximum degree = 8 Minimum degree = 2
c p edge 50 115
c cnf created by edge2cnf
p cnf 150 545
-1 -2 0
-1 -3 0
-2 -3 0
1 2 3 0
-4 -5 0
-4 -6 0
-5 -6 0
4 5 6 0
-7 -8 0
-7 -9 0
-8 -9 0
7 8 9 0
-10 -11 0
-10 -12 0
-11 -12 0
10 11 12 0
-13 -14 0
-13 -15 0
-14 -15 0
13 14 15 0
-16 -17 0
-16 -18 0
-17 -18 0
16 17 18 0
-19 -20 0
-19 -21 0
-20 -21 0
19 20 21 0
-22 -23 0
-22 -24 0
-23 -24 0
22 23 24 0
-25 -26 0
-25 -27 0
-26 -27 0
25 26 27 0
-28 -29 0
-28 -30 0
-29 -30 0
28 29 30 0
-31 -32 0
-31 -33 0
-32 -33 0
31 32 33 0
-34 -35 0
-34 -36 0
-35 -36 0
34 35 36 0
-37 -38 0
-37 -39 0
-38 -39 0
37 38 39 0
-40 -41 0
-40 -42 0
-41 -42 0
40 41 42 0
-43 -44 0
-43 -45 0
-44 -45 0
43 44 45 0
-46 -47 0
-46 -48 0
-47 -48 0
46 47 48 0
-49 -50 0
-49 -51 0
-50 -51 0
49 50 51 0
-52 -53 0
-52 -54 0
-53 -54 0
52 53 54 0
-55 -56 0
-55 -57 0
-56 -57 0
55 56 57 0
-58 -59 0
-58 -60 0
-59 -60 0
58 59 60 0
-61 -62 0
-61 -63 0
-62 -63 0
61 62 63 0
-64 -65 0
-64 -66 0
-65 -66 0
64 65 66 0
-67 -68 0
-67 -69 0
-68 -69 0
67 68 69 0
-70 -71 0
-70 -72 0
-71 -72 0
70 71 72 0
-73 -74 0
-73 -75 0
-74 -75 0
73 74 75 0
-76 -77 0
-76 -78 0
-77 -78 0
76 77 78 0
-79 -80 0
-79 -81 0
-80 -81 0
79 80 81 0
-82 -83 0
-82 -84 0
-83 -84 0
82 83 84 0
-85 -86 0
-85 -87 0
-86 -87 0
85 86 87 0
-88 -89 0
-88 -90 0
-89 -90 0
88 89 90 0
-91 -92 0
-91 -93 0
-92 -93 0
91 92 93 0
-94 -95 0
-94 -96 0
-95 -96 0
94 95 96 0
-97 -98 0
-97 -99 0
-98 -99 0
97 98 99 0
-100 -101 0
-100 -102 0
-101 -102 0
100 101 102 0
-103 -104 0
-103 -105 0
-104 -105 0
103 104 105 0
-106 -107 0
-106 -108 0
-107 -108 0
106 107 108 0
-109 -110 0
-109 -111 0
-110 -111 0
109 110 111 0
-112 -113 0
-112 -114 0
-113 -114 0
112 113 114 0
-115 -116 0
-115 -117 0
-116 -117 0
115 116 117 0
-118 -119 0
-118 -120 0
-119 -120 0
118 119 120 0
-121 -122 0
-121 -123 0
-122 -123 0
121 122 123 0
-124 -125 0
-124 -126 0
-125 -126 0
124 125 126 0
-127 -128 0
-127 -129 0
-128 -129 0
127 128 129 0
-130 -131 0
-130 -132 0
-131 -132 0
130 131 132 0
-133 -134 0
-133 -135 0
-134 -135 0
133 134 135 0
-136 -137 0
-136 -138 0
-137 -138 0
136 137 138 0
-139 -140 0
-139 -141 0
-140 -141 0
139 140 141 0
-142 -143 0
-142 -144 0
-143 -144 0
142 143 144 0
-145 -146 0
-145 -147 0
-146 -147 0
145 146 147 0
-148 -149 0
-148 -150 0
-149 -150 0
148 149 150 0
-58 -1 0
-59 -2 0
-60 -3 0
-100 -1 0
-101 -2 0
-102 -3 0
-124 -1 0
-125 -2 0
-126 -3 0
-82 -4 0
-83 -5 0
-84 -6 0
-109 -4 0
-110 -5 0
-111 -6 0
-52 -7 0
-53 -8 0
-54 -9 0
-58 -7 0
-59 -8 0
-60 -9 0
-70 -7 0
-71 -8 0
-72 -9 0
-73 -7 0
-74 -8 0
-75 -9 0
-109 -7 0
-110 -8 0
-111 -9 0
-136 -7 0
-137 -8 0
-138 -9 0
-76 -10 0
-77 -11 0
-78 -12 0
-79 -10 0
-80 -11 0
-81 -12 0
-109 -10 0
-110 -11 0
-111 -12 0
-124 -10 0
-125 -11 0
-126 -12 0
-127 -10 0
-128 -11 0
-129 -12 0
-145 -10 0
-146 -11 0
-147 -12 0
-55 -13 0
-56 -14 0
-57 -15 0
-94 -13 0
-95 -14 0
-96 -15 0
-100 -13 0
-101 -14 0
-102 -15 0
-103 -13 0
-104 -14 0
-105 -15 0
-61 -16 0
-62 -17 0
-63 -18 0
-79 -16 0
-80 -17 0
-81 -18 0
-85 -16 0
-86 -17 0
-87 -18 0
-121 -16 0
-122 -17 0
-123 -18 0
-133 -16 0
-134 -17 0
-135 -18 0
-145 -16 0
-146 -17 0
-147 -18 0
-148 -16 0
-149 -17 0
-150 -18 0
-67 -19 0
-68 -20 0
-69 -21 0
-73 -19 0
-74 -20 0
-75 -21 0
-91 -19 0
-92 -20 0
-93 -21 0
-94 -19 0
-95 -20 0
-96 -21 0
-121 -19 0
-122 -20 0
-123 -21 0
-61 -22 0
-62 -23 0
-63 -24 0
-76 -22 0
-77 -23 0
-78 -24 0
-100 -22 0
-101 -23 0
-102 -24 0
-106 -22 0
-107 -23 0
-108 -24 0
-145 -22 0
-146 -23 0
-147 -24 0
-76 -25 0
-77 -26 0
-78 -27 0
-136 -25 0
-137 -26 0
-138 -27 0
-64 -28 0
-65 -29 0
-66 -30 0
-85 -28 0
-86 -29 0
-87 -30 0
-94 -28 0
-95 -29 0
-96 -30 0
-100 -28 0
-101 -29 0
-102 -30 0
-133 -28 0
-134 -29 0
-135 -30 0
-139 -28 0
-140 -29 0
-141 -30 0
-148 -28 0
-149 -29 0
-150 -30 0
-106 -31 0
-107 -32 0
-108 -33 0
-127 -31 0
-128 -32 0
-129 -33 0
-133 -31 0
-134 -32 0
-135 -33 0
-55 -34 0
-56 -35 0
-57 -36 0
-61 -34 0
-62 -35 0
-63 -36 0
-64 -34 0
-65 -35 0
-66 -36 0
-73 -37 0
-74 -38 0
-75 -39 0
-79 -37 0
-80 -38 0
-81 -39 0
-118 -37 0
-119 -38 0
-120 -39 0
-121 -37 0
-122 -38 0
-123 -39 0
-61 -40 0
-62 -41 0
-63 -42 0
-70 -40 0
-71 -41 0
-72 -42 0
-88 -40 0
-89 -41 0
-90 -42 0
-106 -40 0
-107 -41 0
-108 -42 0
-118 -40 0
-119 -41 0
-120 -42 0
-139 -40 0
-140 -41 0
-141 -42 0
-148 -40 0
-149 -41 0
-150 -42 0
-112 -43 0
-113 -44 0
-114 -45 0
-139 -43 0
-140 -44 0
-141 -45 0
-73 -46 0
-74 -47 0
-75 -48 0
-91 -46 0
-92 -47 0
-93 -48 0
-97 -46 0
-98 -47 0
-99 -48 0
-106 -46 0
-107 -47 0
-108 -48 0
-130 -46 0
-131 -47 0
-132 -48 0
-136 -46 0
-137 -47 0
-138 -48 0
-76 -49 0
-77 -50 0
-78 -51 0
-91 -49 0
-92 -50 0
-93 -51 0
-109 -49 0
-110 -50 0
-111 -51 0
-121 -49 0
-122 -50 0
-123 -51 0
-127 -49 0
-128 -50 0
-129 -51 0
-148 -49 0
-149 -50 0
-150 -51 0
-103 -52 0
-104 -53 0
-105 -54 0
-121 -52 0
-122 -53 0
-123 -54 0
-124 -52 0
-125 -53 0
-126 -54 0
-145 -52 0
-146 -53 0
-147 -54 0
-103 -55 0
-104 -56 0
-105 -57 0
-139 -55 0
-140 -56 0
-141 -57 0
-142 -55 0
-143 -56 0
-144 -57 0
-112 -58 0
-113 -59 0
-114 -60 0
-115 -58 0
-116 -59 0
-117 -60 0
-127 -58 0
-128 -59 0
-129 -60 0
-121 -61 0
-122 -62 0
-123 -63 0
-148 -61 0
-149 -62 0
-150 -63 0
-133 -64 0
-134 -65 0
-135 -66 0
-121 -67 0
-122 -68 0
-123 -69 0
-130 -67 0
-131 -68 0
-132 -69 0
-115 -70 0
-116 -71 0
-117 -72 0
-142 -70 0
-143 -71 0
-144 -72 0
-112 -73 0
-113 -74 0
-114 -75 0
-121 -73 0
-122 -74 0
-123 -75 0
-124 -73 0
-125 -74 0
-126 -75 0
-133 -73 0
-134 -74 0
-135 -75 0
-127 -76 0
-128 -77 0
-129 -78 0
-145 -76 0
-146 -77 0
-147 -78 0
-148 -76 0
-149 -77 0
-150 -78 0
-124 -79 0
-125 -80 0
-126 -81 0
-136 -79 0
-137 -80 0
-138 -81 0
-148 -82 0
-149 -83 0
-150 -84 0
-130 -88 0
-131 -89 0
-132 -90 0
-115 -91 0
-116 -92 0
-117 -93 0
-136 -91 0
-137 -92 0
-138 -93 0
-145 -91 0
-146 -92 0
-147 -93 0
-115 -97 0
-116 -98 0
-117 -99 0
-136 -97 0
-137 -98 0
-138 -99 0
-142 -97 0
-143 -98 0
-144 -99 0
-148 -97 0
-149 -98 0
-150 -99 0
-109 -100 0
-110 -101 0
-111 -102 0
-136 -100 0
-137 -101 0
-138 -102 0
